outputs/case_2.model.txt
funding_raised_within_share_ratio = 0
capital_increase_occurred = False
authority_order_issued = True
authority_orders_capital_replenishment = False
dissolution_and_liquidation_ordered = False
own_capital = 169000000000
risk_capital = 100000000000
board_meeting_held = False
sanction_dispose_subsidiary_shares = False
shares_disposed_within_deadline = False
sanction_remove_manager_or_staff = False
report_to_authority_submitted = False
accumulated_loss = 0
subsidiary_financial_condition_bad = True
subsidiary_capital_adequacy_below_minimum = True
owner_equity = 1500000000
sanction_revoke_meeting_resolution = False
sanction_suspend_subsidiary_business = True
subsidiary_capital_adequacy_ratio = 169
total_assets_excluding_investment_type = 100000000000
authority_minimum_capital_adequacy_ratio = 180
paid_in_capital = 0
sanction_other_measures = True
supervisors_notified = False
authority_notifies_economic_ministry = False
capital_replenishment_executed = False
capital_replenishment_approved = False
sanction_revoke_license = False
authority_imposes_sanctions = True
fhc_assists_subsidiary_recovery = True
violation_flag = False
violation_occurred = False
authority_orders_fhc_to_assist_or_dispose = True
license_revoked_disposal_and_dissolution = False
capital_level = 2
sanction_remove_director_or_supervisor = False
accumulated_loss_exceeds_limit = False
net_worth_ratio = 3/2
penalty = False
capital_replenishment_approved_and_executed = False
capital_adequacy_ratio = 169
board_meeting_held_and_reported = False
subsidiary_financial_condition_deteriorated = True
capital_increase_funding = 1
/0 = [(169000000000, 100000000000) -> 169/100,
 (1500000000, 100000000000) -> 3/200,
 else -> -1/2]